# LAMMPS input: Phase 1 baseline for A/B comparison with TDMD.
# Must match TDMD medium benchmark exactly:
#   Cu FCC 32000 atoms, Morse potential, NVE, dt=0.001 ps, 1000 steps.
#
# Morse parameters: D=0.3429 alpha=1.3588 r0=2.866 rc=6.0
# Velocity seed: 42, T_init=300K
# Units: metal (eV, Angstrom, ps, g/mol)

units           metal
atom_style      atomic
boundary        p p p

read_data       ../medium.data

pair_style      morse 6.0
pair_coeff      1 1 0.3429 1.3588 2.866

neighbor        1.0 bin
neigh_modify    every 10 delay 0 check no

velocity        all create 300.0 42 mom yes rot no

fix             1 all nve
timestep        0.001

thermo          100
thermo_style    custom step temp pe ke etotal press

run             1000
